30
100
1 1 12
2 1 12
3 1 23
4 1 45
5 1 1
6 1 34
7 1 14
8 1 10
9 1 1009
10 1 1
11 1 34
12 1 56
13 1 22 
14 1 11
15 1 5
16 1 321
17 1 12
18 1 1
19 1 6
20 1 8
21 1 3
22 1 5
23 1 7
24 1 4
25 1 21
26 1 87
27 1 43
28 1 42
29 1 18
30 1 71
